2583377525 -1 0
1243373556 -2 0
638956618 -3 0
316343639 -4 0
h 5 -6 0
h 2 6 0
1438880469 -7 0
1422714296 -8 0
292207661 -9 0
h -5 3 0
2756167520 -10 0
2327705394 -11 0
h -5 9 0
3181536294 -12 0
3331800623 -13 0
h 4 14 0
2589051423 -15 0
h -5 -14 0
